\ LP format - for model browsing. Use MPS format to capture full model detail.
Minimize
  0.25 g_01 + 0.25 g_02 + 0.25 g_03 + 0.25 g_04 + 0.25 g_05 + 0.25 g_10
   + 0.25 g_12 + 0.25 g_13 + 0.25 g_14 + 0.25 g_15 + 0.25 g_20 + 0.25 g_21
   + 0.25 g_23 + 0.25 g_24 + 0.25 g_25 + 0.25 g_30 + 0.25 g_31 + 0.25 g_32
   + 0.25 g_34 + 0.25 g_35 + 0.25 g_40 + 0.25 g_41 + 0.25 g_42 + 0.25 g_43
   + 0.25 g_45 + 0.25 g_50 + 0.25 g_51 + 0.25 g_52 + 0.25 g_53 + 0.25 g_54
   + g1 + g2
Subject To
 R0: - f_0 - f_1 + l_01 + l_10 + b_01 + b_10 >= -1
 R1: - f_0 - f_2 + l_02 + l_20 + b_02 + b_20 >= -1
 R2: - f_0 - f_3 + l_03 + l_30 + b_03 + b_30 >= -1
 R3: - f_0 - f_4 + l_04 + l_40 + b_04 + b_40 >= -1
 R4: - f_0 - f_5 + l_05 + l_50 + b_05 + b_50 >= -1
 R5: - f_0 - f_1 + l_01 + l_10 + b_01 + b_10 >= -1
 R6: - f_1 - f_2 + l_12 + l_21 + b_12 + b_21 >= -1
 R7: - f_1 - f_3 + l_13 + l_31 + b_13 + b_31 >= -1
 R8: - f_1 - f_4 + l_14 + l_41 + b_14 + b_41 >= -1
 R9: - f_1 - f_5 + l_15 + l_51 + b_15 + b_51 >= -1
 R10: - f_0 - f_2 + l_02 + l_20 + b_02 + b_20 >= -1
 R11: - f_1 - f_2 + l_12 + l_21 + b_12 + b_21 >= -1
 R12: - f_2 - f_3 + l_23 + l_32 + b_23 + b_32 >= -1
 R13: - f_2 - f_4 + l_24 + l_42 + b_24 + b_42 >= -1
 R14: - f_2 - f_5 + l_25 + l_52 + b_25 + b_52 >= -1
 R15: - f_0 - f_3 + l_03 + l_30 + b_03 + b_30 >= -1
 R16: - f_1 - f_3 + l_13 + l_31 + b_13 + b_31 >= -1
 R17: - f_2 - f_3 + l_23 + l_32 + b_23 + b_32 >= -1
 R18: - f_3 - f_4 + l_34 + l_43 + b_34 + b_43 >= -1
 R19: - f_3 - f_5 + l_35 + l_53 + b_35 + b_53 >= -1
 R20: - f_0 - f_4 + l_04 + l_40 + b_04 + b_40 >= -1
 R21: - f_1 - f_4 + l_14 + l_41 + b_14 + b_41 >= -1
 R22: - f_2 - f_4 + l_24 + l_42 + b_24 + b_42 >= -1
 R23: - f_3 - f_4 + l_34 + l_43 + b_34 + b_43 >= -1
 R24: - f_4 - f_5 + l_45 + l_54 + b_45 + b_54 >= -1
 R25: - f_0 - f_5 + l_05 + l_50 + b_05 + b_50 >= -1
 R26: - f_1 - f_5 + l_15 + l_51 + b_15 + b_51 >= -1
 R27: - f_2 - f_5 + l_25 + l_52 + b_25 + b_52 >= -1
 R28: - f_3 - f_5 + l_35 + l_53 + b_35 + b_53 >= -1
 R29: - f_4 - f_5 + l_45 + l_54 + b_45 + b_54 >= -1
 R30: x_0 - x_1 + 15 l_01 <= 10
 R31: x_0 - x_2 + 15 l_02 <= 10
 R32: x_0 - x_3 + 15 l_03 <= 10
 R33: x_0 - x_4 + 15 l_04 <= 10
 R34: x_0 - x_5 + 15 l_05 <= 10
 R35: - x_0 + x_1 + 15 l_10 <= 10
 R36: x_1 - x_2 + 15 l_12 <= 10
 R37: x_1 - x_3 + 15 l_13 <= 10
 R38: x_1 - x_4 + 15 l_14 <= 10
 R39: x_1 - x_5 + 15 l_15 <= 10
 R40: - x_0 + x_2 + 15 l_20 <= 10
 R41: - x_1 + x_2 + 15 l_21 <= 10
 R42: x_2 - x_3 + 15 l_23 <= 10
 R43: x_2 - x_4 + 15 l_24 <= 10
 R44: x_2 - x_5 + 15 l_25 <= 10
 R45: - x_0 + x_3 + 15 l_30 <= 11
 R46: - x_1 + x_3 + 15 l_31 <= 11
 R47: - x_2 + x_3 + 15 l_32 <= 11
 R48: x_3 - x_4 + 15 l_34 <= 11
 R49: x_3 - x_5 + 15 l_35 <= 11
 R50: - x_0 + x_4 + 15 l_40 <= 9
 R51: - x_1 + x_4 + 15 l_41 <= 9
 R52: - x_2 + x_4 + 15 l_42 <= 9
 R53: - x_3 + x_4 + 15 l_43 <= 9
 R54: x_4 - x_5 + 15 l_45 <= 9
 R55: - x_0 + x_5 + 15 l_50 <= 10
 R56: - x_1 + x_5 + 15 l_51 <= 10
 R57: - x_2 + x_5 + 15 l_52 <= 10
 R58: - x_3 + x_5 + 15 l_53 <= 10
 R59: - x_4 + x_5 + 15 l_54 <= 10
 R60: y_0 - y_1 + 18 b_01 <= 13
 R61: y_0 - y_2 + 18 b_02 <= 13
 R62: y_0 - y_3 + 18 b_03 <= 13
 R63: y_0 - y_4 + 18 b_04 <= 13
 R64: y_0 - y_5 + 18 b_05 <= 13
 R65: - y_0 + y_1 + 18 b_10 <= 13
 R66: y_1 - y_2 + 18 b_12 <= 13
 R67: y_1 - y_3 + 18 b_13 <= 13
 R68: y_1 - y_4 + 18 b_14 <= 13
 R69: y_1 - y_5 + 18 b_15 <= 13
 R70: - y_0 + y_2 + 18 b_20 <= 13
 R71: - y_1 + y_2 + 18 b_21 <= 13
 R72: y_2 - y_3 + 18 b_23 <= 13
 R73: y_2 - y_4 + 18 b_24 <= 13
 R74: y_2 - y_5 + 18 b_25 <= 13
 R75: - y_0 + y_3 + 18 b_30 <= 14
 R76: - y_1 + y_3 + 18 b_31 <= 14
 R77: - y_2 + y_3 + 18 b_32 <= 14
 R78: y_3 - y_4 + 18 b_34 <= 14
 R79: y_3 - y_5 + 18 b_35 <= 14
 R80: - y_0 + y_4 + 18 b_40 <= 12
 R81: - y_1 + y_4 + 18 b_41 <= 12
 R82: - y_2 + y_4 + 18 b_42 <= 12
 R83: - y_3 + y_4 + 18 b_43 <= 12
 R84: y_4 - y_5 + 18 b_45 <= 12
 R85: - y_0 + y_5 + 18 b_50 <= 12
 R86: - y_1 + y_5 + 18 b_51 <= 12
 R87: - y_2 + y_5 + 18 b_52 <= 12
 R88: - y_3 + y_5 + 18 b_53 <= 12
 R89: - y_4 + y_5 + 18 b_54 <= 12
 R90: x_0 >= 0
 R91: x_1 >= 0
 R92: x_2 >= 0
 R93: x_3 >= 0
 R94: x_4 >= 0
 R95: x_5 >= 0
 R96: x_0 <= 10
 R97: x_1 <= 10
 R98: x_2 <= 10
 R99: x_3 <= 11
 R100: x_4 <= 9
 R101: x_5 <= 10
 R102: y_0 >= 0
 R103: y_1 >= 0
 R104: y_2 >= 0
 R105: y_3 >= 0
 R106: y_4 >= 0
 R107: y_5 >= 0
 R108: y_0 <= 13
 R109: y_1 <= 13
 R110: y_2 <= 13
 R111: y_3 <= 14
 R112: y_4 <= 12
 R113: y_5 <= 12
 R114: - 25 f_0 - 25 f_1 - 25 f_2 - 16 f_3 - 36 f_4 - 30 f_5 - g1 = -268
 R115: - 25 f_0 - 25 f_1 - 25 f_2 - 16 f_3 - 36 f_4 - 30 f_5 - g1 = -268
 R116: - 25 f_0 - 25 f_1 - 25 f_2 - 16 f_3 - 36 f_4 - 30 f_5 - g1 = -268
 R117: - 25 f_0 - 25 f_1 - 25 f_2 - 16 f_3 - 36 f_4 - 30 f_5 - g1 = -268
 R118: - 25 f_0 - 25 f_1 - 25 f_2 - 16 f_3 - 36 f_4 - 30 f_5 - g1 = -268
 R119: - 25 f_0 - 25 f_1 - 25 f_2 - 16 f_3 - 36 f_4 - 30 f_5 - g1 = -268
 R120: 12 f_0 + 12 f_1 + 12 f_2 + 8 f_3 + 16 f_4 + 12 f_5 + g2 = 10
 R121: 12 f_0 + 12 f_1 + 12 f_2 + 8 f_3 + 16 f_4 + 12 f_5 + g2 = 10
 R122: 12 f_0 + 12 f_1 + 12 f_2 + 8 f_3 + 16 f_4 + 12 f_5 + g2 = 10
 R123: 12 f_0 + 12 f_1 + 12 f_2 + 8 f_3 + 16 f_4 + 12 f_5 + g2 = 10
 R124: 12 f_0 + 12 f_1 + 12 f_2 + 8 f_3 + 16 f_4 + 12 f_5 + g2 = 10
 R125: 12 f_0 + 12 f_1 + 12 f_2 + 8 f_3 + 16 f_4 + 12 f_5 + g2 = 10
 R126: - f_0 - f_1 + g_01 >= -1
 R127: - f_0 - f_2 + g_02 >= -1
 R128: - f_0 - f_3 + g_03 >= -1
 R129: - f_0 - f_4 + g_04 >= -1
 R130: - f_0 - f_5 + g_05 >= -1
 R131: - f_0 - f_1 + g_10 >= -1
 R132: - f_1 - f_2 + g_12 >= -1
 R133: - f_1 - f_3 + g_13 >= -1
 R134: - f_1 - f_4 + g_14 >= -1
 R135: - f_1 - f_5 + g_15 >= -1
 R136: - f_0 - f_2 + g_20 >= -1
 R137: - f_1 - f_2 + g_21 >= -1
 R138: - f_2 - f_3 + g_23 >= -1
 R139: - f_2 - f_4 + g_24 >= -1
 R140: - f_2 - f_5 + g_25 >= -1
 R141: - f_0 - f_3 + g_30 >= -1
 R142: - f_1 - f_3 + g_31 >= -1
 R143: - f_2 - f_3 + g_32 >= -1
 R144: - f_3 - f_4 + g_34 >= -1
 R145: - f_3 - f_5 + g_35 >= -1
 R146: - f_0 - f_4 + g_40 >= -1
 R147: - f_1 - f_4 + g_41 >= -1
 R148: - f_2 - f_4 + g_42 >= -1
 R149: - f_3 - f_4 + g_43 >= -1
 R150: - f_4 - f_5 + g_45 >= -1
 R151: - f_0 - f_5 + g_50 >= -1
 R152: - f_1 - f_5 + g_51 >= -1
 R153: - f_2 - f_5 + g_52 >= -1
 R154: - f_3 - f_5 + g_53 >= -1
 R155: - f_4 - f_5 + g_54 >= -1
Bounds
Binaries
 f_0 f_1 f_2 f_3 f_4 f_5 l_01 l_02 l_03 l_04 l_05 l_10 l_12 l_13 l_14 l_15
 l_20 l_21 l_23 l_24 l_25 l_30 l_31 l_32 l_34 l_35 l_40 l_41 l_42 l_43 l_45
 l_50 l_51 l_52 l_53 l_54 b_01 b_02 b_03 b_04 b_05 b_10 b_12 b_13 b_14 b_15
 b_20 b_21 b_23 b_24 b_25 b_30 b_31 b_32 b_34 b_35 b_40 b_41 b_42 b_43 b_45
 b_50 b_51 b_52 b_53 b_54 g_01 g_02 g_03 g_04 g_05 g_10 g_12 g_13 g_14 g_15
 g_20 g_21 g_23 g_24 g_25 g_30 g_31 g_32 g_34 g_35 g_40 g_41 g_42 g_43 g_45
 g_50 g_51 g_52 g_53 g_54
End
